<number of tasks>
50

<cycle time>
1000

<order strength>
0.596


<task times>
1 557
2 371
3 550
4 694
5 477
6 364
7 183
8 609
9 365
10 451
11 325
12 412
13 463
14 521
15 555
16 661
17 787
18 478
19 521
20 415
21 334
22 554
23 300
24 509
25 487
26 332
27 600
28 560
29 626
30 637
31 891
32 640
33 406
34 476
35 364
36 358
37 515
38 596
39 648
40 326
41 544
42 479
43 508
44 422
45 488
46 505
47 574
48 420
49 468
50 563

<precedence relations>
1,16
2,28
3,28
4,28
5,8
5,10
5,11
5,12
6,8
6,9
6,13
6,28
7,10
7,14
7,17
7,20
8,16
9,16
10,13
10,19
10,22
11,14
11,17
12,15
13,16
14,28
15,16
15,17
15,18
15,19
15,20
15,21
15,22
16,23
16,24
16,25
16,26
16,27
17,28
18,36
19,36
20,36
21,29
21,34
21,35
21,39
22,28
23,38
24,37
24,47
25,34
25,35
25,39
26,34
26,35
26,39
27,34
27,35
28,30
28,31
28,32
28,33
28,35
29,37
29,47
30,36
31,37
31,39
32,36
32,38
33,36
33,39
34,36
35,36
35,37
35,38
36,40
36,41
36,42
36,43
36,44
36,45
37,46
38,46
38,47
40,48
41,46
41,47
42,47
43,46
43,47
44,46
46,48
47,50
48,49
48,50

<end>
